Selected objective sense:  MINIMIZE
Selected objective  name:  OBJ
Selected RHS        name:  RHS1
CPXPARAM_Preprocessing_Presolve                  0
CPXPARAM_LPMethod                                4
CPXPARAM_Threads                                 1
CPXPARAM_SolutionType                            2
CPXPARAM_TimeLimit                               3600
Tried aggregator 0 times.
DUAL formed by presolve
Reduced presolve eliminated 3102 rows and 8440 columns.
Reduced LP has 16280 rows, 7231 columns, and 708177 nonzeros.
Presolve time = 0.26 sec. (234.21 ticks)
Parallel mode: none, using 1 thread for barrier

***NOTE: Found 52 dense columns.

Number of nonzeros in lower triangle of A*A' = 14882
Using Approximate Minimum Degree ordering
Total time for automatic ordering = 0.00 sec. (2.43 ticks)
Summary statistics for Cholesky factor:
  Rows in Factor            = 16332
  Integer space required    = 384838
  Total non-zeros in factor = 821301
  Total FP ops to factor    = 42481469
 Itn      Primal Obj        Dual Obj  Prim Inf Upper Inf  Dual Inf Inf Ratio
   0  -1.9276622e+07   3.0375000e+06  6.56e+08  6.13e+03  1.89e+06  1.00e+00
   1  -1.9092740e+06   7.0040656e+05  6.26e+07  5.85e+02  4.72e+05  2.96e-03
   2  -3.6875480e+05   1.1793945e+05  1.07e+07  1.00e+02  1.06e+05  7.29e-03
   3  -5.7285596e+04   2.8900685e+04  1.91e+06  1.79e+01  1.81e+04  2.39e-02
   4  -2.4194499e+04   9.6278489e+03  8.01e+05  7.49e+00  6.21e+03  6.94e-02
   5  -1.6764232e+04   7.5773512e+03  5.28e+05  4.93e+00  5.15e+03  8.53e-02
   6  -1.0689280e+04   7.8295771e+01  3.01e+05  2.81e+00  1.37e+03  8.00e-01
   7  -2.9821574e+03  -1.0296069e+02  7.70e+04  7.20e-01  7.56e+02  1.65e+00
   8  -1.6812814e+03  -2.8443167e+02  3.89e+04  3.63e-01  2.15e+02  1.17e+01
   9  -1.0799091e+03  -2.9260374e+02  2.20e+04  2.06e-01  4.54e+01  4.74e+01
  10  -1.0036202e+03  -2.9507092e+02  1.98e+04  1.86e-01  3.71e+01  5.46e+01
  11  -5.8181027e+02  -3.0045332e+02  7.82e+03  7.32e-02  2.06e+01  9.24e+01
  12  -5.6008130e+02  -3.1895151e+02  6.83e+03  6.39e-02  1.72e+01  1.09e+02
  13  -5.2366231e+02  -3.2590806e+02  5.66e+03  5.30e-02  1.29e+01  1.42e+02
  14  -4.1695581e+02  -3.3211906e+02  2.17e+03  2.03e-02  9.64e+00  1.90e+02
  15  -4.1042083e+02  -3.3951230e+02  1.91e+03  1.79e-02  7.27e+00  2.57e+02
  16  -3.9855061e+02  -3.5305262e+02  1.47e+03  1.38e-02  2.20e+00  9.84e+02
  17  -3.9397060e+02  -3.5352103e+02  1.30e+03  1.21e-02  2.04e+00  1.04e+03
  18  -3.7355902e+02  -3.5589756e+02  5.32e+02  4.98e-03  1.21e+00  1.54e+03
  19  -3.7268761e+02  -3.5646305e+02  4.88e+02  4.56e-03  1.11e+00  1.67e+03
  20  -3.7023416e+02  -3.5759979e+02  3.65e+02  3.41e-03  9.20e-01  2.02e+03
  21  -3.6565943e+02  -3.6069167e+02  1.32e+02  1.23e-03  3.99e-01  4.65e+03
  22  -3.6349593e+02  -3.6230607e+02  2.06e+01  1.93e-04  1.31e-01  1.42e+04
  23  -3.6322468e+02  -3.6256970e+02  6.10e+00  5.71e-05  8.82e-02  2.17e+04
  24  -3.6317131e+02  -3.6283918e+02  2.67e+00  2.49e-05  4.57e-02  4.69e+04
  25  -3.6314038e+02  -3.6293532e+02  1.38e+00  1.29e-05  2.93e-02  7.68e+04
  26  -3.6313818e+02  -3.6298549e+02  1.30e+00  1.22e-05  2.05e-02  1.13e+05
  27  -3.6313173e+02  -3.6304707e+02  1.08e+00  1.01e-05  9.47e-03  2.69e+05
  28  -3.6312000e+02  -3.6306217e+02  7.44e-01  6.96e-06  6.43e-03  3.97e+05
  29  -3.6311875e+02  -3.6306636e+02  7.16e-01  6.70e-06  5.33e-03  4.80e+05
  30  -3.6309918e+02  -3.6309116e+02  1.15e-01  1.07e-06  7.85e-04  3.23e+06
  31  -3.6309586e+02  -3.6309501e+02  1.06e-02  9.95e-08  9.16e-05  2.77e+07
  32  -3.6309554e+02  -3.6309550e+02  6.07e-04  5.68e-09  4.61e-06  5.50e+08
  33  -3.6309552e+02  -3.6309552e+02  3.04e-05  2.84e-10  2.33e-07  1.10e+10
Barrier time = 1.78 sec. (2644.65 ticks)

Total time on 1 threads = 1.78 sec. (2644.65 ticks)
Solve time: 1.782011437
Barrier iterations: 33
